300
[60,64,65,73,75,77,79,84,87,88,90,92,94,96,99,101,102,103,111,112,113,114,115,118,120,122,126,127,134,139,141,142,145,146,147,149,150,152,153,155,161,162,163,168,169,170,172,173,174,175,178,180,185,187,189,193,196,197,199,201,206,208,210,212,213,214,216,222,224,225,226,228,232,236,237]
[1,2,1,2,1,1,1,2,1,1,1,1,2,1,4,1,1,1,1,1,2,2,1,1,1,1,2,1,1,1,1,1,1,1,1,1,1,1,1,2,3,1,1,1,1,2,1,1,3,2,2,3,1,2,1,1,1,1,1,1,1,2,1,1,2,1,1,1,1,1,1,3,1,1,1]
